
 102   30
  10   10   10   10   10   10   10   10   10   10   10   10   10   10   10   10   10   10   10   10   10   10   10   10   10   10   10   10   10   10

   0   0   0   0   0   0   0   0   0   0   0   0   0   0   0   0   0   0   0   0   0   0   0   0   0   0   0   0   0   0   0  28 2 3 4 5 6 7 8 9 10 11 12 13 14 15 16 17 18 19 20 21 22 24 27 28 35 36 43 50 
   8   0   3   0   0   0   0   0   2   0   0   0   0   0   0   0   0   0   0   0   0   0   0   0   0   0   0   1   0   0   2  17 59 51 49 48 47 45 41 39 38 37 34 33 31 30 29 26 23 
   7   0   0   0   0   0   0   0   0   0   1   0   0   0   0   0   0   0   0   0   0   1   0   0   0   0   2   0   0   0   0  15 101 76 69 68 61 58 56 55 48 47 44 41 38 37 33 
  10   0   0   0   0   0   0   0   0   0   0   0   0   0   0   0   0   0   0   0   2   6   0   0   0   1   0   0   2   0   0  15 96 75 72 69 68 66 61 58 57 51 49 48 46 41 26 
   8   0   0   0   0   0   0   0   0   0   0   0   0   0   0   0   0   0   0   0   0   0   0   0   0   0   0   0   0   0   0  15 76 75 74 69 68 67 61 58 56 55 53 52 40 37 32 
   5   1   0   0   0   0   3   0   0   0   0   0   0   0   0   0   0   0   0   0   0   0   0   0   0   0   0   0   0   0   0  15 100 98 76 73 66 65 62 61 58 55 54 49 47 40 33 
  10   0   0   0   0   0   0   0   8   0   0   1   1   0   0   0   0   0   0   1   0   0   0   1   0  10   0   0   7   0   0  14 98 96 76 75 69 68 66 65 64 61 60 40 39 25 
   2   0   0   0   0   0   3   1   0   0   6   0   6   0   0   0   0   1   0   0   6   0   0   0   1   6   0   0   0   1   0  16 100 98 75 74 72 69 66 65 60 57 56 54 49 45 41 34 
   5   0   0   0   2   0   0   0   0   0   0   0   0   1   0   1   0   8   0   8   0   0   0   0   0   0   3   0   0   0   0  15 100 96 75 74 67 66 65 64 61 60 57 53 48 40 39 
   2   0   0   0   0   0   0   0   0   0   0   0   0   0   0   0   0   0   1   0   0   0   0   0   6   7   0   0   0   0   0  13 101 100 99 97 96 76 72 71 69 65 48 45 33 
  10   0   0   0   0   0   0   0   0   0   0   0   5   0   0   0   0   0   0   6   7   0   0   0   0   0   0   0   9   0   0  15 101 96 94 76 73 71 67 66 60 59 56 53 47 46 38 
   7   0   0   0   0   0   0   0   0   0   0   0   0  10   3   0   0   0   0   0   0   0   0   0   0   0   0   0   0   7   0  18 100 99 98 97 95 92 75 74 72 68 67 65 60 55 52 47 42 41 
   8   0   0   0   0   0   0   0   0   0   0   0   0   0   0   0   0   0   0   0   0   0   0   0   0   0   0   0   0   0   0  11 101 100 99 97 96 71 58 51 47 41 33 
  10   0   0   0   0   0   8   0   0   2   6   0   0   0   0   0   0   0   0   0   0   0   0   0   9   0   0   0   6   0   0  11 99 75 68 65 64 56 55 53 52 48 40 
   3   0   5   0   0   1   5   0   0   0   0   0   0   0   0   0   0   0   0   0   0   7   0   0   0   0   0   0   7   0   0  16 101 100 99 96 95 91 74 71 70 67 64 60 52 51 48 46 
   8   0   0   0   0   0   0   0   0   0   0   0   0   0   0   0   0   0   0   0   0   0   0   0   6   0   0   0  10   0   0  18 101 99 98 97 96 94 92 75 74 73 72 69 67 66 65 61 52 47 
   1   0   0   0   2   0   0   0   0   0   0   0   0   0   0   0   0   0   0   0   0   0   0   0   0   0   0   0   0   0   0  10 100 96 75 72 70 66 64 60 46 34 
   8   0   0   0   8   0   0   0   0   0   0   0   0   0   0   7   2   8   0   8   0  10   0   0   0   0   0  10   7   0   0  13 100 94 92 75 67 66 64 62 60 56 52 49 46 
   5   0   0   1   0  10   0   0   0   0   6   0   0   0   0   0   6   0   0   0   0   0   0   0   0   0   6   0   0   8   4  13 100 96 94 74 72 67 66 63 60 56 52 51 45 
   6   0   5   0   0   0   0   0   0   0   0   0   0   0   5   0   0   0   0   0   0   0   0   0   0   0  10   0   0   0   0  12 95 94 91 73 72 71 70 66 62 54 52 46 
   8   0   0   0   0   5   6   0   0   0   0   0   0   0   0   0   0   0   0   5   0   0   0   0   6   0   0   0   0   0   0  15 101 100 91 90 83 73 72 71 66 65 62 60 56 55 45 
   4   0   0   0   0   0   0   8   0   0   0  10   0   0   0   0   0   0   0   0   0   0   0   0   8   0   0   0   0   0   0  10 101 94 91 88 75 70 55 54 46 44 
   5   0   0   0   0   0   0   0   0   0   0   4   0   0   5   8   8   0   0   0   0   0   0   0   0   0   0   0   0   7   0  16 99 93 92 91 88 80 76 75 73 71 69 68 66 64 60 46 
   1   0   0   0   0   0   5   0   6   0   7   5   0   0   0   0   0   0   0   0   0   6   0   0   0   0   0   0   0   0   0  12 99 96 91 86 76 75 71 70 67 52 48 46 
   4   6   6   0   0   0   0   0   0   0   0   0  10   0   8   0   0   0   8   0   0   0   0   0   0   0   0   0   0   8   9  16 101 100 99 94 92 91 87 86 74 73 72 70 67 56 53 52 
   3   0   6   0   0   7   0   0   0   0   0   0   0   0   0   0   0   0   0   0   0   0   0   0   0   0   0   0   5   0   0  14 100 97 94 91 89 76 74 73 70 67 64 60 53 52 
   1   9   0   0   0   0   0   0   0   0   0   7   6   0   0   8   0   0   0   0   7   0   0   0   8   0   5   0   5   8   0  11 96 94 93 90 89 74 66 64 61 60 40 
   9   0   0   0   0   0   0   0   0   0   0   0   0   0   7   0   0   0   0   0   0   0   0   5   0   0   0   0   0   0   5  14 100 98 97 95 93 92 88 83 78 72 71 67 55 47 
   6   0   7   0   0   0   0   0   0   0   0   0   0   0   0   0   0   0   0   0   0   0   0   0   0   0   0   0   0   0   0  17 101 100 98 94 92 91 89 88 83 81 75 73 72 71 66 64 60 
   9   0   5   0   0   5   5   0   0   0   0   0   0   7   0   0   4   0   0   0   0   6   0   0   0   9   0   0   0   0   0  16 100 99 96 95 94 93 91 88 80 74 73 71 69 65 64 61 
   2   0   0   0   0   0   0   0   0   5   0   0   0   0   0   0   5   0   0   0   0   0   0   0   0   0   0   0   0   0   0  15 99 96 93 86 83 74 73 72 71 70 68 65 61 60 56 
   8   0   7   0   0   3   0   0   0   0   0   0   0   0   5   0   0   0   0   0   0   0   2   0   0   0   0   0   3   0   0  15 98 97 94 93 91 90 83 78 77 72 70 66 65 64 60 
   6   7   0   0   0   7   0   0   5   0   0   0   0   0   0   0   0   0   9   0   0   0   0   0   0   0   0   0   0   0   0  14 95 94 92 91 90 86 82 78 75 74 70 67 60 52 
   9   0   0   0   5   0   0   0   0   0   0   0   0   0   0   7   0   0   6   0   9   0   0   0   0   0   0   0   0   0   0  14 101 97 94 92 91 90 86 85 82 79 78 71 68 52 
   5   0   0   0   0   0   0   0   0   0   0   0   0   0   0   0   0   0   0   0   0   0   0   0   9   0   0   0   0   0   0  15 99 98 97 96 95 92 88 86 84 83 73 72 71 66 65 
   1   0   0   0   0   0   0   0   0   6   0   0   0   0   0   0   0   0   6   0   0   0   0   0   0   0   0   0   0   0   0  14 101 95 94 93 91 89 86 83 79 78 74 72 67 66 
   9   0   9   0   0   7   0   0   7   5   3   0   0   0   0   0   0   0   0   0   0   0   0   0   0   9   0   0   0   0   0  14 100 99 98 94 91 88 87 85 83 82 79 73 71 65 
   6   0   0   0  10   0   0   0   0   0   0   0   0   0   0   0   0   0   0   0   0   0   7   6   0   0   0   0   0   8   0  10 97 95 92 90 86 85 82 78 72 52 
   6   0   5   0   0   0   8   0   0   7   0   2   0   0   0   0   0   0   0   0   0   0   0   0   0   0   0   0   0  10   0   7 94 92 89 86 72 56 52 
   4   0   0   9   0   0   0   0   0   0   0   0   0   0   0   0   5   0   0   0   0   0   0   5   0   0   0   0   0   0   0  12 101 97 92 91 87 84 83 81 78 72 71 70 
   2   0  10   0   0   0   0   5   0   9   0   0   0   0   4   0   0   0   0   0   8   0   0   0   0   0   0   0   0   0   4  13 91 88 87 86 85 84 83 82 81 80 79 77 73 
   3   0   0   6   0   0   0   0   0   0   6   0   6   0   0   0   0   0   0   0   0   3   0   0   0   0   0   0   0   0   0  13 91 90 89 87 85 84 83 82 81 80 79 78 71 
   1   0   0   0   0   5   7   0   0   0   0   0   0   0   6   0   0   0   0   0   0   4   0   0   0   0   0   0   0   0   0  11 97 96 95 93 92 89 84 83 79 71 66 
   8   7   0   0   0   0   0   0   0   0   0   0   0   0   5   0   0   0   0   0   0   0   0   0   0   0   0   0   0   0   0   9 98 96 92 90 87 83 81 72 71 
   6   0   0   0   0   0   0   0   0   0   0   0   0   0   0   0   0   0   0   0   0   0   0   0   0   0   0   0   0   0   0   8 92 89 88 85 84 78 70 64 
   7   0   0   0   0   6   0   2   0   0   0   9   0   0   0   0   0   0   0   0   0   0   0   0   0   8   0   0   0   0   7   8 98 97 90 87 83 78 77 65 
   8   0   0   7   0   0   0   0   0   0   0   0   0   6   0   5   0   0   0   0   0   8  10   9   0   0   0   0   0   0   0   7 91 90 81 80 77 70 64 
   2   0   5   0   0   0   0   0   0   8   0   0   0   0   0   0   0   0   0   0   0   0   0   5   0   0   0   0   0   0   0   8 98 94 85 82 81 80 79 73 
   1   0   5   0   0   8   0   0   0   0   0   0   0   0   3   0   0   0   0   0   0   0   0   4   3   0   0   0   0   0   0   8 95 91 90 86 83 81 78 70 
   9   5   0   0   0   0   0   0   0   0   0   0   0   0   0   0   0   0   4   0   0   0   0   0   0   0   0   0   0   4   0   8 99 96 90 88 85 84 83 79 
   3   0   0   0   0   0   5   0   0   3   0   0   0   6   0   0   0   0   0   6   0   0   0   0   0   0   0   0   0   0   0   7 92 89 83 82 81 80 73 
   2   7   0   0   0   6   0   7   0   0   0   0   0   0   0   0   5   0   0   0   2   0   0   0   0   0   0   0   0   0   0   7 93 88 84 83 81 80 77 
   9   2   0   0   0   0   0   5   0   0   0   0   0   0   0   0   0   0   0   0   0   0   0   0   0   0   0   0   0   0   0   7 95 90 88 85 80 78 77 
   3   0   0   0   8   0   0   0   0  10   3   0   0   0  10   0   0   0  10   0   6   0   0   0   0   0   0   0   0   0   0   5 99 96 85 80 64 
   5   0   0   0   0   0   0   0   8   0   0   0   0   0   0   0   0   0   0   0   0   0   0   2   0   0   0   0   0   4   0   6 96 86 85 84 82 79 
   9   0   4   0   0   0   0   0   0   0   0   0   0   0   0   0   0  10   0   0   0   0   0   8   0   0   0   0   0   0   0   5 95 88 82 78 77 
   8   0   0   0   0   0  10   7   0   0   0   0   0   0   0   0   0   0   0   0   0   0   0   0   0   0   5   0   0   6   5   5 99 86 85 80 77 
   5   0   0   0   3   0   0   0   0   0   9   0   0   0   0   0   0   0   0   0   8   0   0   0   0   0   0   0   0   6   5   4 92 90 88 79 
   5   0   0   7   0   7   0   0   0   0   0   0   0   0  10   0   0   0   0   0   0   0   0   0   0   0   0   0   0   0   0   4 93 87 80 78 
   2   0   0   8   0   0   0   0   0   0   0   0   4   0   0   4   0   0   0   0   0   0   9   0   0   0   0   0   6   7   0   3 87 84 79 
   2   0  10   0   0   0   0   0   0   0   0   0   0   0   0   0   0   0   0   0   0   0   0   0   0   5   0   0   9   0   7   3 87 84 77 
   7   0  10   0   0   0   0   0   0   0   0   0   3   0   0   0   0   0   0   0   0   0   0   0   0   0   0   0   0   0   0   3 89 87 84 
   2   0   0   0   9   0   0   0   0   0   0   0   0   0   0   0   0   0   0   0   0   0   0   0   0   0   0   0   0   0   0   3 90 79 78 
   8   0   6   0  10   0   4   7   0   0   0   0   0   7   0   0   0   0   0   5   0   0   0   0   0   0   0   0   0   0   0   2 86 82 
   6   0   5   0   0   0   0   0   0   0   6   0   0   0   0   0   0   0   0   0   0   0   0   0   0   0   7   0   0   0   0   2 89 81 
   4   0   5   0   0   0   0   0   0   0   0   0   0   0   7   0   0   0   0   0   4   0   0   0   0   0   0   0   4   0   8   2 85 82 
   5   0   3   0   0   0   0   0   0   0   0   5   0   9   0   0   0   0   0   5   0   0   0   9   0   4   0   0   0   0   0   2 84 77 
   6   0   0   0   0   0   5   0   6   0   0   7   0   0   5   0   0   0   0   0   0   0   0   0   0   0   0   0   0   0   0   2 89 87 
   3   0   0   0   0   0   0   0   6   5   0   0   5   0   0   0   0   0   0   0   6   0   0   0   0   0   0   0   0   0  10   2 83 79 
   6   0   0   0   0   0   0   0  10   0   0   0   0   0   0   0   0   0   4   0   0   0   0   0   0   0   7   0   0   0   0   1 79 
   8   0   0   0   6   0   0   0   0   0   0   0   0   5   0   0   0   5   0   9   0   0   0   0   0   0   0   0   0   0   0   1 77 
  10   0   0   0   0   0   0   0   0   0   0   0   8   0   0   0   0   7   0   0   0   0   0   0   0   0   0   0   0   0   0   1 80 
   7   0   0   0   0   0   8   0   0   0   0   0   0   3   0   7   0   0   0   0   0   8   0   0   0   0   0   0   0   6   0   1 78 
   3   0   0   0   0   0   0   0   0   7   0   0   0   0   0   0   0   0   0   0   0   0   0   0   0   0   0   0   6   0   5   1 81 
  10   0   0   0   0   0   0   0   0   0   0   0   0   0   0   0   0   0   0   0   0   7   0   0   0   0   0   0   0   0   0   1 85 
   8   0   0   0   0   0   9   0   0   3   0   0   0   0   0   0   0   0   0   0   8   0   0   0   0   0   0   0   6   0   0   1 85 
   8   0   2   0   0   0   0   0   0   0   0   0   0   0   0   0   0   0   0   0   0   0   0   0   0   0   0   0   0   4   0   1 102
   8   8   0   0   0   7   4   0   0   0   0   0   0   6   0   0   0   0   0   0   0   0   0   0   0   0   0   0   0   0   0   1 102
   5   0   0   0   0   0   0   0   0   0   0   0   0   0   0   0   0   0   0   0   0   0   0   8   0   0   0   0   0   0   0   1 102
   4   0   9   0   0   0   0   0   0   0   0   0   0   0   0   7   0   3   0   0   0   0   0   2   0   0   0   4   0   0   0   1 102
   6   0   0   0   0   0   0   0   0   0   0   0   0   0   5   0   4   0   0   0   0   0   0   0   0   0   0   0   0   0   0   1 102
   7   0   0   0   6   0   0   0   0   0   0   0   8   0   0   0   0   0   0   6   0   0   0   0   0   0   8   7   5   0   0   1 102
   7   0   0   0   0   8   0   0   4   0   0   0   0   0   0   0   0   0   0   0   5   0   0   8   0   0   0   0   0   0   0   1 102
   6   0   0   0   0   0   6   0   0   0   0   0   0   0   0   0   8   0   0   0   0   0   0   0   0   0   0   0   0   0   0   1 102
   5   0   0   4   0   0   7  10   0   7   6   0   5   0   0   0  10   5   0   0   0   0   5   0   0   0   0   0   0   0   0   1 102
   6   0   0   0   0   0   0   0   0   0   0   0   0   0   0   0   0   0   0   9   0   0   0   0   0   0   0   0   0   0   0   1 102
   2   0   0   0   0   0   0   0   0   0   0   0   0   0   0   0   0   0   0   0   0   0   0   0   4   0   0   0   0   5   0   1 102
   9   0   0   0   0   0   0   0   0   6   0   0   0   0   0   0   9   0   0   0   0   0   0   0   0   2   0   0   0   0   0   1 102
   3   0   0   0   0   0   0   0   0   0   0   0  10   0   0   0   0   0   0   0   0   0   0   0   0   0   0   0   0   0   7   1 102
   7   0   0   0   0   0   0   0   0   0   0  10   0   7   0   0   0   0   0   0   0   0   0   0   0   0   4   0   0   0   0   1 102
   5   6   0   0   0   0   0   0   0   0   0   0   9   5   0   0   7   0   0   0   0   0   0   8   0   0  10   0   0   0   0   1 102
   2   0   0   0   6   0   0   0   0   0   8   0   0   0   0   0   0   7   0   7   0   0   3   0   0   0   0   0   0   6   0   1 102
  10   0   0   0   0   0   0   0   0   0   9   0   0   0   5   0   0   0   0   7   0   0   0   0   0   0   0   0   0   0   0   1 102
  10  10   0   0   0   0   0   0   8   0   0   0   0   0   4   0   0   0   0   0  10   0   0  10   0   5   0   0   0   0   0   1 102
   5   0   0   0   0   0   3   0   0   0   0   0   0   0   0   0   3   0   0   0   0   0   0   0   0   0   0   0   0   0   0   1 102
   9   4   0   0   3   0   0   0   0   0   0   0   0   0   0   0   0   0   0   0   3   0   6   0   0   0   0   0   0   3   0   1 102
   8   0   0   6   0   0   0   0   0   0   0   0   0   0   0   0   8   0   0   0   0   0   0   0   0   0   0   0   5   0   0   1 102
   2   0   0   0   0   0   0   0   0   0   0   0   0   0   0   0   0   0   0   0   5   0   0   0   0   0   5   8   0   0   0   1 102
   7   0   0   0   0   0   0   0   0   0   0   0   0   0  10   6   0   0   0   4   0   0   0   0   0   0   0   0   0   0   0   1 102
   8   0   0   0   0   4   0   0   2   7   8   0   0   0   7   0   0   0   0   0   0   0   0   0   0   0   0   0   0   0   0   1 102
   2   0   0   0   0   0   9   8   0   0   0   0   4   0   0   0   0   0   0   4   0   0   0   0   0   0   6   0   0   0   0   1 102
   0   0   0   0   0   0   0   0   0   0   0   0   0   0   0   0   0   0   0   0   0   0   0   0   0   0   0   0   0   0   0   0 
